! XTB  
!Opt 
%geom
MaxIter 500
end

* xyz 1 1

*
